
Log started (V11.0.0) Sun Apr 13 14:00:57 2008

Tried aggregator 1 time.
Reduced MIP has 230 rows, 6001 columns, and 12030 nonzeros.
Presolve time =    0.05 sec.
Clique table members: 200.
MIP emphasis: balance optimality and feasibility.
MIP search method: dynamic search.
Parallel mode: none, using 1 thread.
Root relaxation solution time =    0.16 sec.

        Nodes                                         Cuts/
   Node  Left     Objective  IInf  Best Integer     Best Node    ItCnt     Gap

*     0+    0                         9683.0000       24.8912      700   99.74%
*     0+    0                           32.0000       24.8912      700   22.21%
      0     0       25.0000    50       32.0000      Fract: 5      721   21.87%
*     0+    0                           31.0000       25.0000      721   19.35%
*     0+    0                           30.0000       25.0000      721   16.67%

Repeating presolve.
Tried aggregator 1 time.
MIP Presolve eliminated 0 rows and 4251 columns.
Reduced MIP has 230 rows, 1750 columns, and 3528 nonzeros.
Tried aggregator 1 time.
Represolve time =    0.06 sec.
Clique table members: 537.
MIP emphasis: balance optimality and feasibility.
MIP search method: dynamic search.
Parallel mode: none, using 1 thread.
Root relaxation solution time =    0.03 sec.

        Nodes                                         Cuts/
   Node  Left     Objective  IInf  Best Integer     Best Node    ItCnt     Gap

      0     0       25.0000    53       30.0000       25.0000      428   16.67%
      0     2       25.0000    53       30.0000       25.0000      428   16.67%
*   100+   86                           29.0000       25.0000     3039   13.79%
    100    88       27.0000    52       29.0000       25.0000     3039   13.79%
    200   159       28.0000    35       29.0000       25.0000     6343   13.79%
    300   237       26.0000    62       29.0000       25.0000     9377   13.79%
    400   319       28.0000    49       29.0000       25.0000    13456   13.79%
*   440+  211                           28.0000       26.0000    14885    7.14%
    500   266       26.0000    49       28.0000       26.0000    16178    7.14%
*   550+  209                           27.0000       26.0000    19261    3.70%
    600   192    infeasible             27.0000       26.0000    26936    3.70%
    700   163       26.0000    75       27.0000       26.0000    54790    3.70%
    800    89       26.0000   132       27.0000       26.0000    98057    3.70%
    900    10       26.0000   144       27.0000       26.0000   169689    3.70%

Clique cuts applied:  1
Cover cuts applied:  488
Mixed integer rounding cuts applied:  37
Zero-half cuts applied:  3
Gomory fractional cuts applied:  10

Solution pool: 7 solutions saved.

MIP - Integer optimal solution:  Objective = 2.7000000000e+001
Solution time =   45.94 sec.  Iterations = 185038  Nodes = 931


Incumbent solution
Variable Name           Solution Value
Cmax                         27.000000
X_1_22                        1.000000
X_2_10                        1.000000
X_3_4                         1.000000
X_4_12                        1.000000
X_5_13                        1.000000
X_6_2                         1.000000
X_7_13                        1.000000
X_8_2                         1.000000
X_9_18                        1.000000
X_10_14                       1.000000
X_11_15                       1.000000
X_12_19                       1.000000
X_13_2                        1.000000
X_14_30                       1.000000
X_15_26                       1.000000
X_16_14                       1.000000
X_17_29                       1.000000
X_18_10                       1.000000
X_19_11                       1.000000
X_20_29                       1.000000
X_21_8                        1.000000
X_22_27                       1.000000
X_23_30                       1.000000
X_24_14                       1.000000
X_25_6                        1.000000
X_26_25                       1.000000
X_27_7                        1.000000
X_28_12                       1.000000
X_29_25                       1.000000
X_30_7                        1.000000
X_31_4                        1.000000
X_32_8                        1.000000
X_33_7                        1.000000
X_34_22                       1.000000
X_35_27                       1.000000
X_36_17                       1.000000
X_37_2                        1.000000
X_38_13                       1.000000
X_39_1                        1.000000
X_40_19                       1.000000
X_41_11                       1.000000
X_42_19                       1.000000
X_43_23                       1.000000
X_44_6                        1.000000
X_45_26                       1.000000
X_46_7                        1.000000
X_47_20                       1.000000
X_48_21                       1.000000
X_49_6                        1.000000
X_50_30                       1.000000
X_51_11                       1.000000
X_52_4                        1.000000
X_53_10                       1.000000
X_54_16                       1.000000
X_55_5                        1.000000
X_56_27                       1.000000
X_57_25                       1.000000
X_58_22                       1.000000
X_59_17                       1.000000
X_60_20                       1.000000
X_61_28                       1.000000
X_62_17                       1.000000
X_63_7                        1.000000
X_64_8                        1.000000
X_65_30                       1.000000
X_66_20                       1.000000
X_67_24                       1.000000
X_68_3                        1.000000
X_69_5                        1.000000
X_70_15                       1.000000
X_71_2                        1.000000
X_72_25                       1.000000
X_73_9                        1.000000
X_74_2                        1.000000
X_75_14                       1.000000
X_76_2                        1.000000
X_77_29                       1.000000
X_78_9                        1.000000
X_79_10                       1.000000
X_80_12                       1.000000
X_81_27                       1.000000
X_82_14                       1.000000
X_83_22                       1.000000
X_84_22                       1.000000
X_85_10                       1.000000
X_86_22                       1.000000
X_87_13                       1.000000
X_88_25                       1.000000
X_89_19                       1.000000
X_90_5                        1.000000
X_91_11                       1.000000
X_92_29                       1.000000
X_93_5                        1.000000
X_94_3                        1.000000
X_95_21                       1.000000
X_96_30                       1.000000
X_97_13                       1.000000
X_98_13                       1.000000
X_99_9                        1.000000
X_100_23                      1.000000
X_101_8                       1.000000
X_102_30                      1.000000
X_103_10                      1.000000
X_104_4                       1.000000
X_105_28                      1.000000
X_106_15                      1.000000
X_107_14                      1.000000
X_108_6                       1.000000
X_109_13                      1.000000
X_110_15                      1.000000
X_111_13                      1.000000
X_112_11                      1.000000
X_113_14                      1.000000
X_114_2                       1.000000
X_115_6                       1.000000
X_116_13                      1.000000
X_117_13                      1.000000
X_118_7                       1.000000
X_119_28                      1.000000
X_120_1                       1.000000
X_121_26                      1.000000
X_122_23                      1.000000
X_123_8                       1.000000
X_124_14                      1.000000
X_125_23                      1.000000
X_126_8                       1.000000
X_127_25                      1.000000
X_128_6                       1.000000
X_129_19                      1.000000
X_130_28                      1.000000
X_131_9                       1.000000
X_132_11                      1.000000
X_133_19                      1.000000
X_134_16                      1.000000
X_135_24                      1.000000
X_136_8                       1.000000
X_137_26                      1.000000
X_138_19                      1.000000
X_139_23                      1.000000
X_140_22                      1.000000
X_141_1                       1.000000
X_142_28                      1.000000
X_143_16                      1.000000
X_144_17                      1.000000
X_145_28                      1.000000
X_146_27                      1.000000
X_147_30                      1.000000
X_148_15                      1.000000
X_149_30                      1.000000
X_150_4                       1.000000
X_151_26                      1.000000
X_152_16                      1.000000
X_153_18                      1.000000
X_154_30                      1.000000
X_155_25                      1.000000
X_156_19                      1.000000
X_157_15                      1.000000
X_158_14                      1.000000
X_159_5                       1.000000
X_160_26                      1.000000
X_161_20                      1.000000
X_162_23                      1.000000
X_163_12                      1.000000
X_164_16                      1.000000
X_165_13                      1.000000
X_166_4                       1.000000
X_167_3                       1.000000
X_168_15                      1.000000
X_169_11                      1.000000
X_170_26                      1.000000
X_171_3                       1.000000
X_172_21                      1.000000
X_173_17                      1.000000
X_174_3                       1.000000
X_175_3                       1.000000
X_176_18                      1.000000
X_177_1                       1.000000
X_178_10                      1.000000
X_179_29                      1.000000
X_180_23                      1.000000
X_181_10                      1.000000
X_182_22                      1.000000
X_183_30                      1.000000
X_184_18                      1.000000
X_185_22                      1.000000
X_186_7                       1.000000
X_187_3                       1.000000
X_188_24                      1.000000
X_189_18                      1.000000
X_190_22                      1.000000
X_191_8                       1.000000
X_192_12                      1.000000
X_193_16                      1.000000
X_194_24                      1.000000
X_195_7                       1.000000
X_196_15                      1.000000
X_197_20                      1.000000
X_198_10                      1.000000
X_199_21                      1.000000
X_200_26                      1.000000
All other variables in the range 1-6001 are 0.
